% File represents an instance of a Composite Structure problem to be solved by a CP framework
% Created on 2025-03-25 14:06:15.670
T = 36;
n = 36;
m = 60;
edges = [(2, 1),
(8, 7),
(14, 13),
(20, 19),
(26, 25),
(31, 32),
(2, 3),
(8, 9),
(15, 14),
(21, 20),
(27, 26),
(33, 32),
(3, 4),
(9, 10),
(15, 16),
(21, 22),
(27, 28),
(33, 34),
(4, 5),
(10, 11),
(16, 17),
(22, 23),
(28, 29),
(34, 35),
(5, 6),
(12, 11),
(18, 17),
(24, 23),
(29, 30),
(36, 35),
(1, 7),
(7, 13),
(19, 13),
(19, 25),
(31, 25),
(8, 2),
(8, 14),
(14, 20),
(20, 26),
(32, 26),
(3, 9),
(15, 9),
(15, 21),
(21, 27),
(33, 27),
(4, 10),
(16, 10),
(16, 22),
(22, 28),
(34, 28),
(5, 11),
(17, 11),
(17, 23),
(23, 29),
(29, 35),
(12, 6),
(18, 12),
(18, 24),
(24, 30),
(36, 30)];
counts = [|6, 6, 6, 10,
|6, 8, 6, 10,
|6, 8, 6, 8,
|4, 8, 6, 8,
|4, 8, 4, 8,
|4, 8, 4, 4,
|6, 4, 6, 10,
|8, 8, 6, 10,
|6, 8, 6, 6,
|4, 8, 6, 6,
|4, 8, 4, 4,
|8, 8, 4, 4,
|6, 4, 4, 8,
|8, 4, 6, 10,
|8, 8, 8, 12,
|4, 8, 8, 6,
|4, 8, 4, 6,
|12, 8, 4, 6,
|8, 4, 4, 8,
|8, 4, 6, 8,
|8, 4, 8, 12,
|4, 4, 8, 6,
|4, 4, 4, 6,
|6, 4, 4, 6,
|6, 2, 2, 4,
|8, 2, 2, 4,
|8, 2, 6, 8,
|2, 2, 6, 6,
|2, 2, 4, 6,
|2, 2, 2, 6,
|8, 2, 6, 6,
|8, 2, 2, 6,
|8, 2, 8, 8,
|2, 2, 8, 8,
|2, 2, 4, 4,
|2, 8, 4, 8|];
